1 of 1 MIP starts provided solutions.
MIP start 'm1' defined initial solution with objective 102144.0000.
Tried aggregator 1 time.
MIP Presolve eliminated 0 rows and 1 columns.
Reduced MIP has 60200 rows, 30400 columns, and 9210100 nonzeros.
Reduced MIP has 30000 binaries, 0 generals, 0 SOSs, and 0 indicators.
Presolve time = 4.93 sec. (2335.91 ticks)
Probing time = 0.25 sec. (95.65 ticks)
Tried aggregator 1 time.
Reduced MIP has 60200 rows, 30400 columns, and 9210100 nonzeros.
Reduced MIP has 30000 binaries, 0 generals, 0 SOSs, and 0 indicators.
Presolve time = 4.95 sec. (2336.04 ticks)
Probing time = 0.25 sec. (95.21 ticks)
Clique table members: 100.
MIP emphasis: balance optimality and feasibility.
MIP search method: dynamic search.
Parallel mode: none, using 1 thread.
Root relaxation solution time = 2.47 sec. (1007.24 ticks)

        Nodes                                         Cuts/
   Node  Left     Objective  IInf  Best Integer    Best Bound    ItCnt     Gap

*     0+    0                       102144.0000   102175.0000      851    0.03%
      0     0   102174.9469    30   102144.0000   102174.9469      851    0.03%
      0     0   102155.9912     4   102144.0000      Cuts: 38      881    0.01%
      0     0   102154.0000     2   102144.0000       Cuts: 6      889    0.01%

Implied bound cuts applied:  2
Flow cuts applied:  7
Mixed integer rounding cuts applied:  17
Gomory fractional cuts applied:  8

Root node processing (before b&c):
  Real time             =   31.26 sec. (14903.62 ticks)
Sequential b&c:
  Real time             =    0.00 sec. (0.00 ticks)
                          ------------
Total (root+branch&cut) =   31.26 sec. (14903.62 ticks)
